50	613
2	3	1
1	5	1
2	5	1
4	5	1
2	6	1
3	6	1
4	6	1
1	7	1
4	7	1
6	7	1
5	8	1
7	8	1
1	9	1
2	9	1
3	9	1
4	9	1
5	9	1
3	10	1
4	10	1
6	10	1
7	10	1
1	11	1
3	11	1
4	11	1
5	11	1
8	11	1
9	11	1
1	12	1
4	12	1
7	12	1
8	12	1
10	12	1
11	12	1
2	13	1
4	13	1
5	13	1
6	13	1
7	13	1
9	13	1
10	13	1
12	13	1
1	14	1
4	14	1
5	14	1
6	14	1
9	14	1
11	14	1
12	14	1
2	15	1
4	15	1
8	15	1
9	15	1
11	15	1
2	16	1
4	16	1
5	16	1
6	16	1
8	16	1
9	16	1
10	16	1
11	16	1
14	16	1
15	16	1
2	17	1
7	17	1
8	17	1
9	17	1
1	18	1
2	18	1
3	18	1
7	18	1
8	18	1
10	18	1
11	18	1
12	18	1
13	18	1
14	18	1
1	19	1
4	19	1
5	19	1
6	19	1
11	19	1
12	19	1
16	19	1
18	19	1
5	20	1
6	20	1
8	20	1
9	20	1
12	20	1
13	20	1
16	20	1
2	21	1
5	21	1
18	21	1
19	21	1
20	21	1
1	22	1
3	22	1
4	22	1
5	22	1
6	22	1
7	22	1
10	22	1
12	22	1
14	22	1
15	22	1
20	22	1
2	23	1
3	23	1
8	23	1
9	23	1
11	23	1
12	23	1
13	23	1
14	23	1
15	23	1
18	23	1
19	23	1
21	23	1
1	24	1
6	24	1
7	24	1
9	24	1
10	24	1
12	24	1
13	24	1
14	24	1
15	24	1
16	24	1
17	24	1
18	24	1
19	24	1
21	24	1
23	24	1
2	25	1
4	25	1
5	25	1
8	25	1
9	25	1
11	25	1
12	25	1
13	25	1
15	25	1
16	25	1
18	25	1
19	25	1
21	25	1
22	25	1
23	25	1
1	26	1
2	26	1
3	26	1
5	26	1
13	26	1
16	26	1
17	26	1
18	26	1
19	26	1
20	26	1
21	26	1
23	26	1
24	26	1
2	27	1
3	27	1
8	27	1
9	27	1
10	27	1
11	27	1
12	27	1
14	27	1
15	27	1
20	27	1
21	27	1
23	27	1
25	27	1
26	27	1
1	28	1
3	28	1
5	28	1
7	28	1
10	28	1
11	28	1
12	28	1
13	28	1
15	28	1
17	28	1
20	28	1
22	28	1
27	28	1
1	29	1
2	29	1
4	29	1
7	29	1
9	29	1
11	29	1
12	29	1
14	29	1
19	29	1
20	29	1
25	29	1
26	29	1
27	29	1
1	30	1
2	30	1
3	30	1
4	30	1
8	30	1
9	30	1
12	30	1
13	30	1
17	30	1
18	30	1
19	30	1
22	30	1
23	30	1
28	30	1
29	30	1
2	31	1
5	31	1
7	31	1
11	31	1
12	31	1
16	31	1
17	31	1
21	31	1
22	31	1
23	31	1
25	31	1
1	32	1
3	32	1
4	32	1
6	32	1
9	32	1
12	32	1
17	32	1
18	32	1
19	32	1
22	32	1
27	32	1
29	32	1
1	33	1
2	33	1
7	33	1
8	33	1
11	33	1
13	33	1
17	33	1
19	33	1
24	33	1
25	33	1
26	33	1
29	33	1
30	33	1
31	33	1
1	34	1
3	34	1
4	34	1
5	34	1
6	34	1
7	34	1
9	34	1
11	34	1
14	34	1
17	34	1
18	34	1
20	34	1
21	34	1
22	34	1
26	34	1
27	34	1
28	34	1
33	34	1
1	35	1
2	35	1
3	35	1
4	35	1
5	35	1
6	35	1
8	35	1
9	35	1
10	35	1
16	35	1
19	35	1
20	35	1
21	35	1
26	35	1
28	35	1
29	35	1
31	35	1
32	35	1
1	36	1
2	36	1
3	36	1
4	36	1
5	36	1
7	36	1
13	36	1
14	36	1
15	36	1
16	36	1
18	36	1
19	36	1
20	36	1
22	36	1
25	36	1
26	36	1
27	36	1
28	36	1
29	36	1
32	36	1
33	36	1
34	36	1
35	36	1
5	37	1
6	37	1
10	37	1
11	37	1
12	37	1
13	37	1
14	37	1
15	37	1
17	37	1
20	37	1
21	37	1
22	37	1
24	37	1
27	37	1
30	37	1
31	37	1
35	37	1
8	38	1
9	38	1
12	38	1
14	38	1
19	38	1
21	38	1
22	38	1
24	38	1
27	38	1
29	38	1
30	38	1
33	38	1
35	38	1
36	38	1
2	39	1
6	39	1
14	39	1
15	39	1
17	39	1
18	39	1
19	39	1
20	39	1
21	39	1
24	39	1
25	39	1
27	39	1
28	39	1
29	39	1
30	39	1
31	39	1
32	39	1
33	39	1
37	39	1
1	40	1
2	40	1
4	40	1
6	40	1
7	40	1
8	40	1
10	40	1
11	40	1
12	40	1
14	40	1
17	40	1
19	40	1
22	40	1
26	40	1
28	40	1
29	40	1
30	40	1
31	40	1
32	40	1
33	40	1
34	40	1
35	40	1
37	40	1
1	41	1
4	41	1
5	41	1
6	41	1
10	41	1
12	41	1
15	41	1
18	41	1
20	41	1
21	41	1
22	41	1
27	41	1
28	41	1
30	41	1
31	41	1
32	41	1
34	41	1
36	41	1
39	41	1
40	41	1
1	42	1
2	42	1
4	42	1
10	42	1
12	42	1
13	42	1
18	42	1
19	42	1
20	42	1
22	42	1
24	42	1
25	42	1
29	42	1
33	42	1
34	42	1
36	42	1
37	42	1
39	42	1
40	42	1
41	42	1
2	43	1
3	43	1
5	43	1
7	43	1
8	43	1
9	43	1
10	43	1
11	43	1
12	43	1
18	43	1
22	43	1
25	43	1
27	43	1
28	43	1
33	43	1
35	43	1
36	43	1
37	43	1
41	43	1
42	43	1
1	44	1
2	44	1
4	44	1
5	44	1
7	44	1
8	44	1
9	44	1
10	44	1
18	44	1
20	44	1
22	44	1
23	44	1
24	44	1
26	44	1
28	44	1
30	44	1
36	44	1
39	44	1
40	44	1
41	44	1
42	44	1
1	45	1
4	45	1
8	45	1
12	45	1
17	45	1
18	45	1
19	45	1
20	45	1
25	45	1
27	45	1
28	45	1
30	45	1
33	45	1
34	45	1
35	45	1
36	45	1
38	45	1
42	45	1
44	45	1
5	46	1
7	46	1
8	46	1
13	46	1
14	46	1
15	46	1
16	46	1
17	46	1
18	46	1
21	46	1
25	46	1
27	46	1
30	46	1
33	46	1
34	46	1
35	46	1
39	46	1
40	46	1
41	46	1
42	46	1
44	46	1
45	46	1
2	47	1
4	47	1
5	47	1
6	47	1
10	47	1
15	47	1
16	47	1
19	47	1
21	47	1
23	47	1
24	47	1
26	47	1
27	47	1
28	47	1
31	47	1
33	47	1
35	47	1
37	47	1
38	47	1
40	47	1
41	47	1
42	47	1
44	47	1
46	47	1
1	48	1
3	48	1
10	48	1
14	48	1
18	48	1
19	48	1
20	48	1
21	48	1
24	48	1
27	48	1
30	48	1
31	48	1
33	48	1
34	48	1
36	48	1
37	48	1
39	48	1
40	48	1
41	48	1
42	48	1
43	48	1
45	48	1
46	48	1
47	48	1
2	49	1
3	49	1
4	49	1
5	49	1
7	49	1
9	49	1
11	49	1
13	49	1
14	49	1
15	49	1
17	49	1
21	49	1
24	49	1
27	49	1
29	49	1
31	49	1
32	49	1
33	49	1
34	49	1
35	49	1
38	49	1
39	49	1
41	49	1
42	49	1
44	49	1
45	49	1
46	49	1
48	49	1
1	50	1
2	50	1
3	50	1
5	50	1
11	50	1
13	50	1
16	50	1
17	50	1
18	50	1
23	50	1
24	50	1
25	50	1
26	50	1
27	50	1
28	50	1
30	50	1
31	50	1
32	50	1
33	50	1
34	50	1
37	50	1
38	50	1
39	50	1
41	50	1
44	50	1
45	50	1
46	50	1
47	50	1
